certificates/rado_a14_c20_N91.cnf
c Rad2 upper bound instance: x1 + 14*x2 - x3 = 20, interval [1,91]
p cnf 91 746
1 2 9 0
-1 -2 -9 0
1 3 23 0
-1 -3 -23 0
1 4 37 0
-1 -4 -37 0
1 5 51 0
-1 -5 -51 0
1 6 65 0
-1 -6 -65 0
1 7 79 0
-1 -7 -79 0
2 10 0
-2 -10 0
2 3 24 0
-2 -3 -24 0
2 4 38 0
-2 -4 -38 0
2 5 52 0
-2 -5 -52 0
2 6 66 0
-2 -6 -66 0
2 7 80 0
-2 -7 -80 0
2 3 11 0
-2 -3 -11 0
3 25 0
-3 -25 0
3 4 39 0
-3 -4 -39 0
3 5 53 0
-3 -5 -53 0
3 6 67 0
-3 -6 -67 0
3 7 81 0
-3 -7 -81 0
2 4 12 0
-2 -4 -12 0
3 4 26 0
-3 -4 -26 0
4 40 0
-4 -40 0
4 5 54 0
-4 -5 -54 0
4 6 68 0
-4 -6 -68 0
4 7 82 0
-4 -7 -82 0
2 5 13 0
-2 -5 -13 0
3 5 27 0
-3 -5 -27 0
4 5 41 0
-4 -5 -41 0
5 55 0
-5 -55 0
5 6 69 0
-5 -6 -69 0
5 7 83 0
-5 -7 -83 0
2 6 14 0
-2 -6 -14 0
3 6 28 0
-3 -6 -28 0
4 6 42 0
-4 -6 -42 0
5 6 56 0
-5 -6 -56 0
6 70 0
-6 -70 0
6 7 84 0
-6 -7 -84 0
1 7 0
-1 -7 0
2 7 15 0
-2 -7 -15 0
3 7 29 0
-3 -7 -29 0
4 7 43 0
-4 -7 -43 0
5 7 57 0
-5 -7 -57 0
6 7 71 0
-6 -7 -71 0
7 85 0
-7 -85 0
1 2 8 0
-1 -2 -8 0
2 8 16 0
-2 -8 -16 0
3 8 30 0
-3 -8 -30 0
4 8 44 0
-4 -8 -44 0
5 8 58 0
-5 -8 -58 0
6 8 72 0
-6 -8 -72 0
7 8 86 0
-7 -8 -86 0
1 3 9 0
-1 -3 -9 0
2 9 17 0
-2 -9 -17 0
3 9 31 0
-3 -9 -31 0
4 9 45 0
-4 -9 -45 0
5 9 59 0
-5 -9 -59 0
6 9 73 0
-6 -9 -73 0
7 9 87 0
-7 -9 -87 0
1 4 10 0
-1 -4 -10 0
2 10 18 0
-2 -10 -18 0
3 10 32 0
-3 -10 -32 0
4 10 46 0
-4 -10 -46 0
5 10 60 0
-5 -10 -60 0
6 10 74 0
-6 -10 -74 0
7 10 88 0
-7 -10 -88 0
1 5 11 0
-1 -5 -11 0
2 11 19 0
-2 -11 -19 0
3 11 33 0
-3 -11 -33 0
4 11 47 0
-4 -11 -47 0
5 11 61 0
-5 -11 -61 0
6 11 75 0
-6 -11 -75 0
7 11 89 0
-7 -11 -89 0
1 6 12 0
-1 -6 -12 0
2 12 20 0
-2 -12 -20 0
3 12 34 0
-3 -12 -34 0
4 12 48 0
-4 -12 -48 0
5 12 62 0
-5 -12 -62 0
6 12 76 0
-6 -12 -76 0
7 12 90 0
-7 -12 -90 0
1 7 13 0
-1 -7 -13 0
2 13 21 0
-2 -13 -21 0
3 13 35 0
-3 -13 -35 0
4 13 49 0
-4 -13 -49 0
5 13 63 0
-5 -13 -63 0
6 13 77 0
-6 -13 -77 0
7 13 91 0
-7 -13 -91 0
1 8 14 0
-1 -8 -14 0
2 14 22 0
-2 -14 -22 0
3 14 36 0
-3 -14 -36 0
4 14 50 0
-4 -14 -50 0
5 14 64 0
-5 -14 -64 0
6 14 78 0
-6 -14 -78 0
1 9 15 0
-1 -9 -15 0
2 15 23 0
-2 -15 -23 0
3 15 37 0
-3 -15 -37 0
4 15 51 0
-4 -15 -51 0
5 15 65 0
-5 -15 -65 0
6 15 79 0
-6 -15 -79 0
1 10 16 0
-1 -10 -16 0
2 16 24 0
-2 -16 -24 0
3 16 38 0
-3 -16 -38 0
4 16 52 0
-4 -16 -52 0
5 16 66 0
-5 -16 -66 0
6 16 80 0
-6 -16 -80 0
1 11 17 0
-1 -11 -17 0
2 17 25 0
-2 -17 -25 0
3 17 39 0
-3 -17 -39 0
4 17 53 0
-4 -17 -53 0
5 17 67 0
-5 -17 -67 0
6 17 81 0
-6 -17 -81 0
1 12 18 0
-1 -12 -18 0
2 18 26 0
-2 -18 -26 0
3 18 40 0
-3 -18 -40 0
4 18 54 0
-4 -18 -54 0
5 18 68 0
-5 -18 -68 0
6 18 82 0
-6 -18 -82 0
1 13 19 0
-1 -13 -19 0
2 19 27 0
-2 -19 -27 0
3 19 41 0
-3 -19 -41 0
4 19 55 0
-4 -19 -55 0
5 19 69 0
-5 -19 -69 0
6 19 83 0
-6 -19 -83 0
1 14 20 0
-1 -14 -20 0
2 20 28 0
-2 -20 -28 0
3 20 42 0
-3 -20 -42 0
4 20 56 0
-4 -20 -56 0
5 20 70 0
-5 -20 -70 0
6 20 84 0
-6 -20 -84 0
1 15 21 0
-1 -15 -21 0
2 21 29 0
-2 -21 -29 0
3 21 43 0
-3 -21 -43 0
4 21 57 0
-4 -21 -57 0
5 21 71 0
-5 -21 -71 0
6 21 85 0
-6 -21 -85 0
1 16 22 0
-1 -16 -22 0
2 22 30 0
-2 -22 -30 0
3 22 44 0
-3 -22 -44 0
4 22 58 0
-4 -22 -58 0
5 22 72 0
-5 -22 -72 0
6 22 86 0
-6 -22 -86 0
1 17 23 0
-1 -17 -23 0
2 23 31 0
-2 -23 -31 0
3 23 45 0
-3 -23 -45 0
4 23 59 0
-4 -23 -59 0
5 23 73 0
-5 -23 -73 0
6 23 87 0
-6 -23 -87 0
1 18 24 0
-1 -18 -24 0
2 24 32 0
-2 -24 -32 0
3 24 46 0
-3 -24 -46 0
4 24 60 0
-4 -24 -60 0
5 24 74 0
-5 -24 -74 0
6 24 88 0
-6 -24 -88 0
1 19 25 0
-1 -19 -25 0
2 25 33 0
-2 -25 -33 0
3 25 47 0
-3 -25 -47 0
4 25 61 0
-4 -25 -61 0
5 25 75 0
-5 -25 -75 0
6 25 89 0
-6 -25 -89 0
1 20 26 0
-1 -20 -26 0
2 26 34 0
-2 -26 -34 0
3 26 48 0
-3 -26 -48 0
4 26 62 0
-4 -26 -62 0
5 26 76 0
-5 -26 -76 0
6 26 90 0
-6 -26 -90 0
1 21 27 0
-1 -21 -27 0
2 27 35 0
-2 -27 -35 0
3 27 49 0
-3 -27 -49 0
4 27 63 0
-4 -27 -63 0
5 27 77 0
-5 -27 -77 0
6 27 91 0
-6 -27 -91 0
1 22 28 0
-1 -22 -28 0
2 28 36 0
-2 -28 -36 0
3 28 50 0
-3 -28 -50 0
4 28 64 0
-4 -28 -64 0
5 28 78 0
-5 -28 -78 0
1 23 29 0
-1 -23 -29 0
2 29 37 0
-2 -29 -37 0
3 29 51 0
-3 -29 -51 0
4 29 65 0
-4 -29 -65 0
5 29 79 0
-5 -29 -79 0
1 24 30 0
-1 -24 -30 0
2 30 38 0
-2 -30 -38 0
3 30 52 0
-3 -30 -52 0
4 30 66 0
-4 -30 -66 0
5 30 80 0
-5 -30 -80 0
1 25 31 0
-1 -25 -31 0
2 31 39 0
-2 -31 -39 0
3 31 53 0
-3 -31 -53 0
4 31 67 0
-4 -31 -67 0
5 31 81 0
-5 -31 -81 0
1 26 32 0
-1 -26 -32 0
2 32 40 0
-2 -32 -40 0
3 32 54 0
-3 -32 -54 0
4 32 68 0
-4 -32 -68 0
5 32 82 0
-5 -32 -82 0
1 27 33 0
-1 -27 -33 0
2 33 41 0
-2 -33 -41 0
3 33 55 0
-3 -33 -55 0
4 33 69 0
-4 -33 -69 0
5 33 83 0
-5 -33 -83 0
1 28 34 0
-1 -28 -34 0
2 34 42 0
-2 -34 -42 0
3 34 56 0
-3 -34 -56 0
4 34 70 0
-4 -34 -70 0
5 34 84 0
-5 -34 -84 0
1 29 35 0
-1 -29 -35 0
2 35 43 0
-2 -35 -43 0
3 35 57 0
-3 -35 -57 0
4 35 71 0
-4 -35 -71 0
5 35 85 0
-5 -35 -85 0
1 30 36 0
-1 -30 -36 0
2 36 44 0
-2 -36 -44 0
3 36 58 0
-3 -36 -58 0
4 36 72 0
-4 -36 -72 0
5 36 86 0
-5 -36 -86 0
1 31 37 0
-1 -31 -37 0
2 37 45 0
-2 -37 -45 0
3 37 59 0
-3 -37 -59 0
4 37 73 0
-4 -37 -73 0
5 37 87 0
-5 -37 -87 0
1 32 38 0
-1 -32 -38 0
2 38 46 0
-2 -38 -46 0
3 38 60 0
-3 -38 -60 0
4 38 74 0
-4 -38 -74 0
5 38 88 0
-5 -38 -88 0
1 33 39 0
-1 -33 -39 0
2 39 47 0
-2 -39 -47 0
3 39 61 0
-3 -39 -61 0
4 39 75 0
-4 -39 -75 0
5 39 89 0
-5 -39 -89 0
1 34 40 0
-1 -34 -40 0
2 40 48 0
-2 -40 -48 0
3 40 62 0
-3 -40 -62 0
4 40 76 0
-4 -40 -76 0
5 40 90 0
-5 -40 -90 0
1 35 41 0
-1 -35 -41 0
2 41 49 0
-2 -41 -49 0
3 41 63 0
-3 -41 -63 0
4 41 77 0
-4 -41 -77 0
5 41 91 0
-5 -41 -91 0
1 36 42 0
-1 -36 -42 0
2 42 50 0
-2 -42 -50 0
3 42 64 0
-3 -42 -64 0
4 42 78 0
-4 -42 -78 0
1 37 43 0
-1 -37 -43 0
2 43 51 0
-2 -43 -51 0
3 43 65 0
-3 -43 -65 0
4 43 79 0
-4 -43 -79 0
1 38 44 0
-1 -38 -44 0
2 44 52 0
-2 -44 -52 0
3 44 66 0
-3 -44 -66 0
4 44 80 0
-4 -44 -80 0
1 39 45 0
-1 -39 -45 0
2 45 53 0
-2 -45 -53 0
3 45 67 0
-3 -45 -67 0
4 45 81 0
-4 -45 -81 0
1 40 46 0
-1 -40 -46 0
2 46 54 0
-2 -46 -54 0
3 46 68 0
-3 -46 -68 0
4 46 82 0
-4 -46 -82 0
1 41 47 0
-1 -41 -47 0
2 47 55 0
-2 -47 -55 0
3 47 69 0
-3 -47 -69 0
4 47 83 0
-4 -47 -83 0
1 42 48 0
-1 -42 -48 0
2 48 56 0
-2 -48 -56 0
3 48 70 0
-3 -48 -70 0
4 48 84 0
-4 -48 -84 0
1 43 49 0
-1 -43 -49 0
2 49 57 0
-2 -49 -57 0
3 49 71 0
-3 -49 -71 0
4 49 85 0
-4 -49 -85 0
1 44 50 0
-1 -44 -50 0
2 50 58 0
-2 -50 -58 0
3 50 72 0
-3 -50 -72 0
4 50 86 0
-4 -50 -86 0
1 45 51 0
-1 -45 -51 0
2 51 59 0
-2 -51 -59 0
3 51 73 0
-3 -51 -73 0
4 51 87 0
-4 -51 -87 0
1 46 52 0
-1 -46 -52 0
2 52 60 0
-2 -52 -60 0
3 52 74 0
-3 -52 -74 0
4 52 88 0
-4 -52 -88 0
1 47 53 0
-1 -47 -53 0
2 53 61 0
-2 -53 -61 0
3 53 75 0
-3 -53 -75 0
4 53 89 0
-4 -53 -89 0
1 48 54 0
-1 -48 -54 0
2 54 62 0
-2 -54 -62 0
3 54 76 0
-3 -54 -76 0
4 54 90 0
-4 -54 -90 0
1 49 55 0
-1 -49 -55 0
2 55 63 0
-2 -55 -63 0
3 55 77 0
-3 -55 -77 0
4 55 91 0
-4 -55 -91 0
1 50 56 0
-1 -50 -56 0
2 56 64 0
-2 -56 -64 0
3 56 78 0
-3 -56 -78 0
1 51 57 0
-1 -51 -57 0
2 57 65 0
-2 -57 -65 0
3 57 79 0
-3 -57 -79 0
1 52 58 0
-1 -52 -58 0
2 58 66 0
-2 -58 -66 0
3 58 80 0
-3 -58 -80 0
1 53 59 0
-1 -53 -59 0
2 59 67 0
-2 -59 -67 0
3 59 81 0
-3 -59 -81 0
1 54 60 0
-1 -54 -60 0
2 60 68 0
-2 -60 -68 0
3 60 82 0
-3 -60 -82 0
1 55 61 0
-1 -55 -61 0
2 61 69 0
-2 -61 -69 0
3 61 83 0
-3 -61 -83 0
1 56 62 0
-1 -56 -62 0
2 62 70 0
-2 -62 -70 0
3 62 84 0
-3 -62 -84 0
1 57 63 0
-1 -57 -63 0
2 63 71 0
-2 -63 -71 0
3 63 85 0
-3 -63 -85 0
1 58 64 0
-1 -58 -64 0
2 64 72 0
-2 -64 -72 0
3 64 86 0
-3 -64 -86 0
1 59 65 0
-1 -59 -65 0
2 65 73 0
-2 -65 -73 0
3 65 87 0
-3 -65 -87 0
1 60 66 0
-1 -60 -66 0
2 66 74 0
-2 -66 -74 0
3 66 88 0
-3 -66 -88 0
1 61 67 0
-1 -61 -67 0
2 67 75 0
-2 -67 -75 0
3 67 89 0
-3 -67 -89 0
1 62 68 0
-1 -62 -68 0
2 68 76 0
-2 -68 -76 0
3 68 90 0
-3 -68 -90 0
1 63 69 0
-1 -63 -69 0
2 69 77 0
-2 -69 -77 0
3 69 91 0
-3 -69 -91 0
1 64 70 0
-1 -64 -70 0
2 70 78 0
-2 -70 -78 0
1 65 71 0
-1 -65 -71 0
2 71 79 0
-2 -71 -79 0
1 66 72 0
-1 -66 -72 0
2 72 80 0
-2 -72 -80 0
1 67 73 0
-1 -67 -73 0
2 73 81 0
-2 -73 -81 0
1 68 74 0
-1 -68 -74 0
2 74 82 0
-2 -74 -82 0
1 69 75 0
-1 -69 -75 0
2 75 83 0
-2 -75 -83 0
1 70 76 0
-1 -70 -76 0
2 76 84 0
-2 -76 -84 0
1 71 77 0
-1 -71 -77 0
2 77 85 0
-2 -77 -85 0
1 72 78 0
-1 -72 -78 0
2 78 86 0
-2 -78 -86 0
1 73 79 0
-1 -73 -79 0
2 79 87 0
-2 -79 -87 0
1 74 80 0
-1 -74 -80 0
2 80 88 0
-2 -80 -88 0
1 75 81 0
-1 -75 -81 0
2 81 89 0
-2 -81 -89 0
1 76 82 0
-1 -76 -82 0
2 82 90 0
-2 -82 -90 0
1 77 83 0
-1 -77 -83 0
2 83 91 0
-2 -83 -91 0
1 78 84 0
-1 -78 -84 0
1 79 85 0
-1 -79 -85 0
1 80 86 0
-1 -80 -86 0
1 81 87 0
-1 -81 -87 0
1 82 88 0
-1 -82 -88 0
1 83 89 0
-1 -83 -89 0
1 84 90 0
-1 -84 -90 0
1 85 91 0
-1 -85 -91 0
