certificates/rado_a14_c20_N91.drat
-85 -91 0
12 -91 0
11 -91 0
-91 0
-7 0
1 0
85 0
13 0
-79 0
-19 0
17 5 0
d 17 67 5 0
-11 0
2 0
89 0
-10 0
-81 0
-77 0
-9 0
-8 0
-5 0
-21 0
-83 0
88 0
60 0
3 0
31 0
27 0
87 0
59 0
58 0
86 0
55 0
0
